NAME : ch130.opt.tour
TYPE : TOUR
DIMENSION : 130
SOLUTION : 662
7 - Punto{x=334.5909245845, y=161.7809319139},Punto{x=470.6801296968, y=309.6259188406},Punto{x=568.573730987, y=287.0975660546},Punto{x=265.4455533675, y=684.9987192464},Punto{x=24.2169105375, y=500.3474481664}
7 - Punto{x=334.5909245845, y=161.7809319139},Punto{x=470.6801296968, y=309.6259188406},Punto{x=478.0542110167, y=509.6452028741},Punto{x=268.3951858954, y=52.9010181645},Punto{x=504.5154071733, y=240.8866564499}
6 - Punto{x=334.5909245845, y=161.7809319139},Punto{x=470.6801296968, y=309.6259188406},Punto{x=478.0542110167, y=509.6452028741},Punto{x=178.1107815614, y=104.6905805938}
8 - Punto{x=334.5909245845, y=161.7809319139},Punto{x=676.3421890013, y=371.0979706551},Punto{x=143.8266469611, y=92.6996831431},Punto{x=209.1887938487, y=691.0262291948},Punto{x=30.2657946347, y=450.0754502986},Punto{x=32.1680938737, y=448.8998721172}
5 - Punto{x=334.5909245845, y=161.7809319139},Punto{x=470.6801296968, y=309.6259188406},Punto{x=220.0468614154, y=623.077810308},Punto{x=133.695300452, y=677.1757808026}
2 - Punto{x=334.5909245845, y=161.7809319139},Punto{x=470.6801296968, y=309.6259188406},Punto{x=568.573730987, y=287.0975660546}
5 - Punto{x=334.5909245845, y=161.7809319139},Punto{x=361.2231139311, y=564.2347787901},Punto{x=84.4920100219, y=31.8474816424}
2 - Punto{x=334.5909245845, y=161.7809319139},Punto{x=248.2179894723, y=343.9528017384}
5 - Punto{x=334.5909245845, y=161.7809319139},Punto{x=295.9250894897, y=664.6291554845}
5 - Punto{x=334.5909245845, y=161.7809319139},Punto{x=416.1546762271, y=227.6133100741}
5 - Punto{x=334.5909245845, y=161.7809319139},Punto{x=470.6801296968, y=309.6259188406},Punto{x=478.0542110167, y=509.6452028741},Punto{x=268.3951858954, y=52.9010181645}
7 - Punto{x=334.5909245845, y=161.7809319139},Punto{x=140.4709056068, y=513.556672096},Punto{x=657.0199585283, y=39.7772908299},Punto{x=503.8741827107, y=172.8741151168},Punto{x=683.2674131973, y=414.2096286906}
5 - Punto{x=334.5909245845, y=161.7809319139},Punto{x=248.2179894723, y=343.9528017384},Punto{x=214.5750793346, y=43.6460117543}
6 - Punto{x=334.5909245845, y=161.7809319139},Punto{x=416.1546762271, y=227.6133100741},Punto{x=503.7886861157, y=514.6895019799}
4 - Punto{x=334.5909245845, y=161.7809319139},Punto{x=470.6801296968, y=309.6259188406},Punto{x=269.4638933331, y=295.9464636385},Punto{x=77.7164048671, y=354.38338633}
7 - Punto{x=334.5909245845, y=161.7809319139},Punto{x=248.2179894723, y=343.9528017384},Punto{x=444.0479403502, y=384.6491809647},Punto{x=384.9270448985, y=87.4630166986}
5 - Punto{x=334.5909245845, y=161.7809319139},Punto{x=676.3421890013, y=371.0979706551},Punto{x=143.8266469611, y=92.6996831431},Punto{x=209.1887938487, y=691.0262291948},Punto{x=30.2657946347, y=450.0754502986}
2 - Punto{x=334.5909245845, y=161.7809319139},Punto{x=470.6801296968, y=309.6259188406},Punto{x=478.0542110167, y=509.6452028741}
6 - Punto{x=334.5909245845, y=161.7809319139},Punto{x=470.6801296968, y=309.6259188406},Punto{x=220.0468614154, y=623.077810308},Punto{x=282.6089948164, y=329.4183805862},Punto{x=220.0041131179, y=409.1225812873}
6 - Punto{x=334.5909245845, y=161.7809319139},Punto{x=470.6801296968, y=309.6259188406},Punto{x=220.0468614154, y=623.077810308},Punto{x=21.7161351334, y=660.9741760476},Punto{x=319.8855102422, y=626.8396604886}
3 - Punto{x=334.5909245845, y=161.7809319139},Punto{x=470.6801296968, y=309.6259188406},Punto{x=288.4868857235, y=667.7284070537}
5 - Punto{x=334.5909245845, y=161.7809319139},Punto{x=470.6801296968, y=309.6259188406},Punto{x=220.0468614154, y=623.077810308},Punto{x=21.7161351334, y=660.9741760476}
3 - Punto{x=334.5909245845, y=161.7809319139},Punto{x=470.6801296968, y=309.6259188406},Punto{x=568.573730987, y=287.0975660546},Punto{x=265.4455533675, y=684.9987192464}
6 - Punto{x=334.5909245845, y=161.7809319139},Punto{x=248.2179894723, y=343.9528017384},Punto{x=444.0479403502, y=384.6491809647},Punto{x=453.3884433554, y=282.9082328989}
5 - Punto{x=334.5909245845, y=161.7809319139},Punto{x=470.6801296968, y=309.6259188406},Punto{x=269.4638933331, y=295.9464636385},Punto{x=77.7164048671, y=354.38338633},Punto{x=335.9802442534, y=660.6321896676}
4 - Punto{x=334.5909245845, y=161.7809319139},Punto{x=470.6801296968, y=309.6259188406},Punto{x=568.573730987, y=287.0975660546},Punto{x=169.8389859939, y=245.6103433244},Punto{x=448.5792598859, y=532.793405974}
6 - Punto{x=334.5909245845, y=161.7809319139},Punto{x=470.6801296968, y=309.6259188406},Punto{x=269.4638933331, y=295.9464636385},Punto{x=469.2908100279, y=281.9891445025},Punto{x=91.0538736891, y=148.7213270256}
8 - Punto{x=334.5909245845, y=161.7809319139},Punto{x=470.6801296968, y=309.6259188406},Punto{x=84.5133841706, y=183.3260738572}
6 - Punto{x=334.5909245845, y=161.7809319139},Punto{x=248.2179894723, y=343.9528017384},Punto{x=489.2756391122, y=665.3131282446},Punto{x=296.9724227786, y=313.1312792361}
10 - Punto{x=334.5909245845, y=161.7809319139},Punto{x=676.3421890013, y=371.0979706551},Punto{x=598.3479202004, y=446.8693279856}
6 - Punto{x=334.5909245845, y=161.7809319139},Punto{x=567.6332684419, y=352.7162027273},Punto{x=509.7093253204, y=435.7975189314},Punto{x=575.8409415632, y=141.9670960195}
5 - Punto{x=334.5909245845, y=161.7809319139},Punto{x=676.3421890013, y=371.0979706551},Punto{x=689.8079027159, y=167.5947003748}
8 - Punto{x=334.5909245845, y=161.7809319139},Punto{x=140.4709056068, y=513.556672096},Punto{x=657.0199585283, y=39.7772908299},Punto{x=355.1528556851, y=76.3912076444}
8 - Punto{x=334.5909245845, y=161.7809319139},Punto{x=676.3421890013, y=371.0979706551},Punto{x=143.8266469611, y=92.6996831431},Punto{x=209.1887938487, y=691.0262291948},Punto{x=30.2657946347, y=450.0754502986},Punto{x=417.8004856811, y=341.2596589955}
4 - Punto{x=334.5909245845, y=161.7809319139},Punto{x=470.6801296968, y=309.6259188406},Punto{x=568.573730987, y=287.0975660546},Punto{x=252.4286967767, y=535.1659364856}
7 - Punto{x=334.5909245845, y=161.7809319139},Punto{x=416.1546762271, y=227.6133100741},Punto{x=32.0825972787, y=345.8551009775}
4 - Punto{x=334.5909245845, y=161.7809319139},Punto{x=676.3421890013, y=371.0979706551},Punto{x=97.9363495877, y=211.0910930878},Punto{x=571.7371050025, y=375.7575350833}
4 - Punto{x=334.5909245845, y=161.7809319139},Punto{x=140.4709056068, y=513.556672096},Punto{x=206.046793982, y=437.7639406167},Punto{x=40.0979030612, y=187.2375430791}
5 - Punto{x=334.5909245845, y=161.7809319139},Punto{x=63.4170993511, y=23.7039309674}
4 - Punto{x=334.5909245845, y=161.7809319139},Punto{x=140.4709056068, y=513.556672096},Punto{x=206.046793982, y=437.7639406167},Punto{x=698.7850451923, y=348.4413729766}
7 - Punto{x=334.5909245845, y=161.7809319139},Punto{x=280.5784506848, y=458.7533546925},Punto{x=415.1928395332, y=78.9133571973},Punto{x=16.9283258126, y=656.5711014044}
5 - Punto{x=334.5909245845, y=161.7809319139},Punto{x=140.4709056068, y=513.556672096},Punto{x=657.0199585283, y=39.7772908299},Punto{x=415.0432204919, y=479.0801701569}
8 - Punto{x=334.5909245845, y=161.7809319139},Punto{x=248.2179894723, y=343.9528017384},Punto{x=444.0479403502, y=384.6491809647},Punto{x=311.6137146746, y=2.0091699828}
4 - Punto{x=334.5909245845, y=161.7809319139},Punto{x=470.6801296968, y=309.6259188406},Punto{x=561.4775136009, y=357.3543930067}
3 - Punto{x=334.5909245845, y=161.7809319139},Punto{x=248.2179894723, y=343.9528017384},Punto{x=6.9252241961, y=23.8749241575}
5 - Punto{x=334.5909245845, y=161.7809319139},Punto{x=280.5784506848, y=458.7533546925},Punto{x=678.7574678104, y=410.7256424438},Punto{x=316.5725171854, y=65.6400108214}
5 - Punto{x=334.5909245845, y=161.7809319139},Punto{x=470.6801296968, y=309.6259188406},Punto{x=269.4638933331, y=295.9464636385},Punto{x=469.2908100279, y=281.9891445025},Punto{x=403.2874386776, y=205.8971749407}
7 - Punto{x=334.5909245845, y=161.7809319139},Punto{x=248.2179894723, y=343.9528017384},Punto{x=6.9252241961, y=23.8749241575},Punto{x=40.5253860363, y=424.6829615797},Punto{x=240.5232959211, y=430.6036007844}
5 - Punto{x=334.5909245845, y=161.7809319139},Punto{x=470.6801296968, y=309.6259188406},Punto{x=568.573730987, y=287.0975660546},Punto{x=169.8389859939, y=245.6103433244},Punto{x=692.13768493, y=543.8010925819}
5 - Punto{x=334.5909245845, y=161.7809319139},Punto{x=27.6581484868, y=424.7684581747}
6 - Punto{x=334.5909245845, y=161.7809319139},Punto{x=63.4170993511, y=23.7039309674},Punto{x=450.2891917862, y=126.3853415784}
4 - Punto{x=334.5909245845, y=161.7809319139},Punto{x=676.3421890013, y=371.0979706551},Punto{x=143.8266469611, y=92.6996831431},Punto{x=209.1887938487, y=691.0262291948}
2 - Punto{x=334.5909245845, y=161.7809319139},Punto{x=567.6332684419, y=352.7162027273}
6 - Punto{x=334.5909245845, y=161.7809319139},Punto{x=676.3421890013, y=371.0979706551},Punto{x=143.8266469611, y=92.6996831431},Punto{x=209.1887938487, y=691.0262291948},Punto{x=30.2657946347, y=450.0754502986},Punto{x=129.3349741063, y=435.6692740389}
3 - Punto{x=334.5909245845, y=161.7809319139},Punto{x=248.2179894723, y=343.9528017384},Punto{x=444.0479403502, y=384.6491809647}
3 - Punto{x=334.5909245845, y=161.7809319139},Punto{x=280.5784506848, y=458.7533546925},Punto{x=488.8909044347, y=3.6122311393}
3 - Punto{x=334.5909245845, y=161.7809319139},Punto{x=470.6801296968, y=309.6259188406},Punto{x=269.4638933331, y=295.9464636385}
4 - Punto{x=334.5909245845, y=161.7809319139},Punto{x=140.4709056068, y=513.556672096},Punto{x=206.046793982, y=437.7639406167},Punto{x=599.0532671093, y=361.0948690386}
5 - Punto{x=334.5909245845, y=161.7809319139},Punto{x=470.6801296968, y=309.6259188406},Punto{x=568.573730987, y=287.0975660546},Punto{x=280.7494438748, y=5.9206392047}
3 - Punto{x=334.5909245845, y=161.7809319139},Punto{x=470.6801296968, y=309.6259188406},Punto{x=220.0468614154, y=623.077810308}
4 - Punto{x=334.5909245845, y=161.7809319139},Punto{x=361.2231139311, y=564.2347787901}
6 - Punto{x=334.5909245845, y=161.7809319139},Punto{x=140.4709056068, y=513.556672096},Punto{x=657.0199585283, y=39.7772908299},Punto{x=503.8741827107, y=172.8741151168}
2 - Punto{x=334.5909245845, y=161.7809319139},Punto{x=676.3421890013, y=371.0979706551},Punto{x=97.9363495877, y=211.0910930878}
7 - Punto{x=334.5909245845, y=161.7809319139},Punto{x=280.5784506848, y=458.7533546925},Punto{x=415.1928395332, y=78.9133571973},Punto{x=687.285753163, y=373.534623613}
7 - Punto{x=334.5909245845, y=161.7809319139},Punto{x=470.6801296968, y=309.6259188406},Punto{x=568.573730987, y=287.0975660546},Punto{x=169.8389859939, y=245.6103433244},Punto{x=342.948216747, y=492.3321423839},Punto{x=688.4613313444, y=0.4702312726}
3 - Punto{x=334.5909245845, y=161.7809319139},Punto{x=470.6801296968, y=309.6259188406},Punto{x=568.573730987, y=287.0975660546},Punto{x=169.8389859939, y=245.6103433244}
6 - Punto{x=334.5909245845, y=161.7809319139},Punto{x=470.6801296968, y=309.6259188406},Punto{x=568.573730987, y=287.0975660546},Punto{x=252.4286967767, y=535.1659364856},Punto{x=238.6851191283, y=33.4932910965}
5 - Punto{x=334.5909245845, y=161.7809319139},Punto{x=470.6801296968, y=309.6259188406},Punto{x=220.0468614154, y=623.077810308},Punto{x=263.6501248722, y=426.5852608187}
5 - Punto{x=334.5909245845, y=161.7809319139},Punto{x=470.6801296968, y=309.6259188406},Punto{x=568.573730987, y=287.0975660546},Punto{x=169.8389859939, y=245.6103433244},Punto{x=342.948216747, y=492.3321423839}
6 - Punto{x=334.5909245845, y=161.7809319139},Punto{x=470.6801296968, y=309.6259188406},Punto{x=220.0468614154, y=623.077810308},Punto{x=282.6089948164, y=329.4183805862},Punto{x=89.0447037063, y=277.1158385868},Punto{x=426.3501451825, y=61.7285415996}
5 - Punto{x=334.5909245845, y=161.7809319139},Punto{x=676.3421890013, y=371.0979706551},Punto{x=97.9363495877, y=211.0910930878},Punto{x=571.7371050025, y=375.7575350833},Punto{x=51.6826916855, y=676.0429509187}
7 - Punto{x=334.5909245845, y=161.7809319139},Punto{x=676.3421890013, y=371.0979706551},Punto{x=97.9363495877, y=211.0910930878},Punto{x=399.525588497, y=170.8221968365}
6 - Punto{x=334.5909245845, y=161.7809319139},Punto{x=470.6801296968, y=309.6259188406},Punto{x=568.573730987, y=287.0975660546},Punto{x=169.8389859939, y=245.6103433244},Punto{x=448.5792598859, y=532.793405974},Punto{x=614.5922732529, y=418.8691931188}
5 - Punto{x=334.5909245845, y=161.7809319139},Punto{x=470.6801296968, y=309.6259188406},Punto{x=269.4638933331, y=295.9464636385},Punto{x=469.2908100279, y=281.9891445025},Punto{x=169.21913568, y=547.8194325476}
1 - Punto{x=334.5909245845, y=161.7809319139},Punto{x=676.3421890013, y=371.0979706551}
6 - Punto{x=334.5909245845, y=161.7809319139},Punto{x=259.7172815016, y=454.6495181318},Punto{x=224.1079496785, y=358.4872228907}
6 - Punto{x=334.5909245845, y=161.7809319139},Punto{x=259.7172815016, y=454.6495181318},Punto{x=194.0131482339, y=263.4791316822}
0 - Punto{x=334.5909245845, y=161.7809319139}
6 - Punto{x=334.5909245845, y=161.7809319139},Punto{x=676.3421890013, y=371.0979706551},Punto{x=42.8551682504, y=63.8232081774}
4 - Punto{x=334.5909245845, y=161.7809319139},Punto{x=145.8999393902, y=399.525588497}
5 - Punto{x=334.5909245845, y=161.7809319139},Punto{x=676.3421890013, y=371.0979706551},Punto{x=143.8266469611, y=92.6996831431},Punto{x=526.8941409181, y=215.7079092185}
4 - Punto{x=334.5909245845, y=161.7809319139},Punto{x=470.6801296968, y=309.6259188406},Punto{x=269.4638933331, y=295.9464636385},Punto{x=469.2908100279, y=281.9891445025}
7 - Punto{x=334.5909245845, y=161.7809319139},Punto{x=470.6801296968, y=309.6259188406},Punto{x=568.573730987, y=287.0975660546},Punto{x=252.4286967767, y=535.1659364856},Punto{x=29.5176994283, y=330.0382309}
7 - Punto{x=334.5909245845, y=161.7809319139},Punto{x=248.2179894723, y=343.9528017384},Punto{x=6.9252241961, y=23.8749241575},Punto{x=40.5253860363, y=424.6829615797},Punto{x=213.5704943432, y=525.8681817779}
4 - Punto{x=334.5909245845, y=161.7809319139},Punto{x=567.6332684419, y=352.7162027273},Punto{x=509.7093253204, y=435.7975189314}
5 - Punto{x=334.5909245845, y=161.7809319139},Punto{x=676.3421890013, y=371.0979706551},Punto{x=97.9363495877, y=211.0910930878},Punto{x=571.7371050025, y=375.7575350833},Punto{x=370.7559842751, y=151.9060751898}
6 - Punto{x=334.5909245845, y=161.7809319139},Punto{x=470.6801296968, y=309.6259188406},Punto{x=568.573730987, y=287.0975660546},Punto{x=252.749309008, y=535.7430385019},Punto{x=454.0082936692, y=537.2178547659}
6 - Punto{x=334.5909245845, y=161.7809319139},Punto{x=676.3421890013, y=371.0979706551},Punto{x=177.020699975, y=295.6044772584}
5 - Punto{x=334.5909245845, y=161.7809319139},Punto{x=361.2231139311, y=564.2347787901},Punto{x=456.3167017346, y=597.1937161677}
3 - Punto{x=334.5909245845, y=161.7809319139},Punto{x=259.7172815016, y=454.6495181318}
5 - Punto{x=334.5909245845, y=161.7809319139},Punto{x=470.6801296968, y=309.6259188406},Punto{x=220.0468614154, y=623.077810308},Punto{x=282.6089948164, y=329.4183805862},Punto{x=89.0447037063, y=277.1158385868}
5 - Punto{x=334.5909245845, y=161.7809319139},Punto{x=676.3421890013, y=371.0979706551},Punto{x=143.8266469611, y=92.6996831431},Punto{x=209.1887938487, y=691.0262291948},Punto{x=530.4849979086, y=183.8390534273}
2 - Punto{x=334.5909245845, y=161.7809319139},Punto{x=676.3421890013, y=371.0979706551},Punto{x=143.8266469611, y=92.6996831431}
4 - Punto{x=334.5909245845, y=161.7809319139},Punto{x=248.2179894723, y=343.9528017384},Punto{x=489.2756391122, y=665.3131282446}
7 - Punto{x=334.5909245845, y=161.7809319139},Punto{x=470.6801296968, y=309.6259188406},Punto{x=568.573730987, y=287.0975660546},Punto{x=252.749309008, y=535.7430385019},Punto{x=441.7822805823, y=299.7724362653}
4 - Punto{x=334.5909245845, y=161.7809319139},Punto{x=470.6801296968, y=309.6259188406},Punto{x=568.573730987, y=287.0975660546},Punto{x=252.749309008, y=535.7430385019}
6 - Punto{x=334.5909245845, y=161.7809319139},Punto{x=140.4709056068, y=513.556672096},Punto{x=543.0102490781, y=481.5168231148}
6 - Punto{x=334.5909245845, y=161.7809319139},Punto{x=470.6801296968, y=309.6259188406},Punto{x=269.4638933331, y=295.9464636385},Punto{x=469.2908100279, y=281.9891445025},Punto{x=535.2514330806, y=471.0648643744},Punto{x=193.6925360026, y=680.2322840744}
2 - Punto{x=334.5909245845, y=161.7809319139},Punto{x=140.4709056068, y=513.556672096}
6 - Punto{x=334.5909245845, y=161.7809319139},Punto{x=201.1521139175, y=649.0260268945}
7 - Punto{x=334.5909245845, y=161.7809319139},Punto{x=470.6801296968, y=309.6259188406},Punto{x=568.573730987, y=287.0975660546},Punto{x=169.8389859939, y=245.6103433244},Punto{x=342.948216747, y=492.3321423839},Punto{x=521.1658690522, y=132.8617086506}
8 - Punto{x=334.5909245845, y=161.7809319139},Punto{x=676.3421890013, y=371.0979706551},Punto{x=143.8266469611, y=92.6996831431},Punto{x=526.8941409181, y=215.7079092185},Punto{x=525.0987124228, y=213.5063718969}
5 - Punto{x=334.5909245845, y=161.7809319139},Punto{x=567.6332684419, y=352.7162027273},Punto{x=509.7093253204, y=435.7975189314},Punto{x=116.2112467718, y=363.574270294}
6 - Punto{x=334.5909245845, y=161.7809319139},Punto{x=676.3421890013, y=371.0979706551},Punto{x=143.8266469611, y=92.6996831431},Punto{x=209.1887938487, y=691.0262291948},Punto{x=30.2657946347, y=450.0754502986},Punto{x=519.9475425732, y=347.971141704}
4 - Punto{x=334.5909245845, y=161.7809319139},Punto{x=280.5784506848, y=458.7533546925},Punto{x=678.7574678104, y=410.7256424438}
5 - Punto{x=334.5909245845, y=161.7809319139},Punto{x=676.3421890013, y=371.0979706551},Punto{x=566.5645610042, y=199.9551615873}
6 - Punto{x=334.5909245845, y=161.7809319139},Punto{x=140.4709056068, y=513.556672096},Punto{x=206.046793982, y=437.7639406167},Punto{x=599.0532671093, y=361.0948690386},Punto{x=638.4885715591, y=62.6262558472}
5 - Punto{x=334.5909245845, y=161.7809319139},Punto{x=676.3421890013, y=371.0979706551},Punto{x=75.4934933967, y=312.9175377486}
6 - Punto{x=334.5909245845, y=161.7809319139},Punto{x=361.2231139311, y=564.2347787901},Punto{x=84.4920100219, y=31.8474816424},Punto{x=484.359584899, y=49.2460387276}
5 - Punto{x=334.5909245845, y=161.7809319139},Punto{x=470.6801296968, y=309.6259188406},Punto{x=220.0468614154, y=623.077810308},Punto{x=397.6446634067, y=262.8165330708}
3 - Punto{x=334.5909245845, y=161.7809319139},Punto{x=140.4709056068, y=513.556672096},Punto{x=206.046793982, y=437.7639406167}
4 - Punto{x=334.5909245845, y=161.7809319139},Punto{x=676.3421890013, y=371.0979706551},Punto{x=196.684916828, y=221.8209157619}
5 - Punto{x=334.5909245845, y=161.7809319139},Punto{x=140.4709056068, y=513.556672096},Punto{x=206.046793982, y=437.7639406167},Punto{x=698.7850451923, y=348.4413729766},Punto{x=637.719102204, y=54.2048412384}
10 - Punto{x=334.5909245845, y=161.7809319139},Punto{x=248.2179894723, y=343.9528017384},Punto{x=6.9252241961, y=23.8749241575},Punto{x=603.2853485624, y=134.4006473609}
1 - Punto{x=334.5909245845, y=161.7809319139},Punto{x=470.6801296968, y=309.6259188406}
4 - Punto{x=334.5909245845, y=161.7809319139},Punto{x=676.3421890013, y=371.0979706551},Punto{x=97.9363495877, y=211.0910930878},Punto{x=572.7630641427, y=373.3208821255}
3 - Punto{x=334.5909245845, y=161.7809319139},Punto{x=140.4709056068, y=513.556672096},Punto{x=657.0199585283, y=39.7772908299}
4 - Punto{x=334.5909245845, y=161.7809319139},Punto{x=470.6801296968, y=309.6259188406},Punto{x=220.0468614154, y=623.077810308},Punto{x=282.6089948164, y=329.4183805862}
8 - Punto{x=334.5909245845, y=161.7809319139},Punto{x=470.6801296968, y=309.6259188406},Punto{x=220.0468614154, y=623.077810308},Punto{x=263.6501248722, y=426.5852608187},Punto{x=399.6752075383, y=156.8435035519}
7 - Punto{x=334.5909245845, y=161.7809319139},Punto{x=567.6332684419, y=352.7162027273},Punto{x=264.355471781, y=377.5743377274}
6 - Punto{x=334.5909245845, y=161.7809319139},Punto{x=470.6801296968, y=309.6259188406},Punto{x=568.573730987, y=287.0975660546},Punto{x=252.749309008, y=535.7430385019},Punto{x=526.1674198605, y=409.4859418161}
5 - Punto{x=334.5909245845, y=161.7809319139},Punto{x=470.6801296968, y=309.6259188406},Punto{x=269.4638933331, y=295.9464636385},Punto{x=469.2908100279, y=281.9891445025},Punto{x=535.2514330806, y=471.0648643744}
2 - Punto{x=334.5909245845, y=161.7809319139},Punto{x=280.5784506848, y=458.7533546925}
4 - Punto{x=334.5909245845, y=161.7809319139},Punto{x=635.5389390312, y=200.9811207275}
7 - Punto{x=334.5909245845, y=161.7809319139},Punto{x=361.2231139311, y=564.2347787901},Punto{x=662.8551011379, y=549.2301263653}
6 - Punto{x=334.5909245845, y=161.7809319139},Punto{x=248.2179894723, y=343.9528017384},Punto{x=6.9252241961, y=23.8749241575},Punto{x=40.5253860363, y=424.6829615797}
7 - Punto{x=334.5909245845, y=161.7809319139},Punto{x=248.2179894723, y=343.9528017384},Punto{x=444.0479403502, y=384.6491809647},Punto{x=453.3884433554, y=282.9082328989},Punto{x=554.2530513223, y=279.4242466521}
4 - Punto{x=334.5909245845, y=161.7809319139},Punto{x=470.6801296968, y=309.6259188406},Punto{x=370.4781203413, y=332.5390063041}
5 - Punto{x=334.5909245845, y=161.7809319139},Punto{x=259.7172815016, y=454.6495181318},Punto{x=434.3440768162, y=92.6996831431}
5 - Punto{x=334.5909245845, y=161.7809319139},Punto{x=280.5784506848, y=458.7533546925},Punto{x=415.1928395332, y=78.9133571973}
-1
EOF